# Executing instances/MDG-a/MDG-a_26_n2000_m200.txt|none|1

==================== CONFIGURAÇÃO DO SOLVER ====================
[MDPModel] Instance: MDG-a_26_n2000_m200
[MDPModel] Configuração: none
[MDPModel] Execução: 1
[MDPModel] n=2000, m=200
[MDPModel] ✓ Configurações de preservação de estratégias aplicadas
Version identifier: 22.1.1.0 | 2022-11-28 | 9160aff4d
CPXPARAM_ClockType                               1
CPXPARAM_Threads                                 1
CPXPARAM_MIP_Strategy_File                       3
CPXPARAM_TimeLimit                               600
CPXPARAM_WorkMem                                 0
CPXPARAM_MIP_Tolerances_Integrality              1.0000000000000001e-09
CPXPARAM_WorkDir                                 "/tmp/cplex_workdir_1755490532006434811"
Tried aggregator 1 time.
MIP Presolve eliminated 3998002 rows and 4000002 columns.
MIP Presolve modified 1779 coefficients.
Reduced MIP has 3997 rows, 3998 columns, and 1825417 nonzeros.
Reduced MIP has 2000 binaries, 0 generals, 0 SOSs, and 0 indicators.
Presolve time = 7.47 sec. (3452.48 ticks)
Found incumbent of value 0.000000 after 8.75 sec. (3925.81 ticks)
Probing time = 0.03 sec. (17.37 ticks)
Tried aggregator 1 time.
Detecting symmetries...
Reduced MIP has 3997 rows, 3998 columns, and 1825417 nonzeros.
Reduced MIP has 2000 binaries, 1998 generals, 0 SOSs, and 0 indicators.
Presolve time = 2.53 sec. (648.14 ticks)
Probing time = 0.03 sec. (17.33 ticks)
MIP emphasis: balance optimality and feasibility.
MIP search method: dynamic search.
Parallel mode: none, using 1 thread.
Root relaxation solution time = 81.18 sec. (45581.41 ticks)

        Nodes                                         Cuts/
   Node  Left     Objective  IInf  Best Integer    Best Bound    ItCnt     Gap

*     0+    0                            0.0000  3357061.0000              --- 
      0     0   385987.1201  3979        0.0000   385987.1201     8639     --- 
      0     0   385967.8756  3994        0.0000     Cuts: 135     8687     --- 
      0     0   385967.8552  3998        0.0000      Cuts: 20     8692     --- 
Heuristic still looking.
Heuristic still looking.
Heuristic still looking.
Detecting symmetries...
      0     2   385967.8552  3998        0.0000   385965.1323     8692     --- 
Elapsed time = 561.30 sec. (447861.46 ticks, tree = 0.01 MB, solutions = 1)
      2     4   384716.5455  3986        0.0000   385925.3009     8715     --- 
      3     5   385925.3009  3994        0.0000   385905.6324     8716     --- 
      5     7   384686.6655  3993        0.0000   385905.6324     8729     --- 
      6     8   385877.3058  3990        0.0000   385905.6324     8731     --- 
Advanced basis not built.

Flow cuts applied:  1
Mixed integer rounding cuts applied:  20
Gomory fractional cuts applied:  1

Root node processing (before b&c):
  Real time             =  561.70 sec. (447877.08 ticks)
Sequential b&c:
  Real time             =   38.94 sec. (55064.57 ticks)
                          ------------
Total (root+branch&cut) =  600.64 sec. (502941.65 ticks)
----- END ----
LB     : 385905
UB     : 0
NODES  : 7
GAP OPT (%)  : 0.00%
------------------
INSTANCE_NAME      : MDG-a_26_n2000_m200
N_VALUE            : 2000
M_VALUE            : 200
CONFIG_VALUE       : none
EXEC_NUMBER        : 1
TIME               : 609.91
IS_SOLVED          : 1
HEURISTIC_SOLUTION : 113861
SOLUTION           : 0
HEURISTIC GAP (%)  : -0.35%
------------------
SOLUTION ELEMENTS: 0 1 2 3 4 5 6 7 8 9 10 11 12 13 14 15 16 17 18 19 20 21 22 23 24 25 26 27 28 29 30 31 32 33 34 35 36 37 38 39 40 41 42 43 44 45 46 47 48 49 50 51 52 53 54 55 56 57 58 59 60 61 62 63 64 65 66 67 68 69 70 71 72 73 74 75 76 77 78 79 80 81 82 83 84 85 86 87 88 89 90 91 92 93 94 95 96 97 98 99 100 101 102 103 104 105 106 107 108 109 110 111 112 113 114 115 116 117 118 119 120 121 122 123 124 125 126 127 128 129 130 131 132 133 134 135 136 137 138 139 140 141 142 143 144 145 146 147 148 149 150 151 152 153 154 155 156 157 158 159 160 161 162 163 164 165 166 167 168 169 170 171 172 173 174 175 176 177 178 179 180 181 182 183 184 185 186 187 188 189 190 191 192 193 194 195 196 197 198 199 
